SCIP version 5.0.0 [precision: 8 byte] [memory: block] [mode: optimized] [LP solver: NONE] [GitHash: 3bbd232]
Copyright (C) 2002-2017 Konrad-Zuse-Zentrum fuer Informationstechnik Berlin (ZIB)

External codes: 
  Readline EditLine w  GNU library for command line editing (gnu.org/s/readline)
  CppAD 20160000.1     Algorithmic Differentiation of C++ algorithms developed by B. Bell (www.coin-or.org/CppAD)
  ZLIB 1.2.5           General purpose compression library by J. Gailly and M. Adler (zlib.net)
  GMP 6.1.2            GNU Multiple Precision Arithmetic Library developed by T. Granlund (gmplib.org)

user parameter file <scip.set> not found - using default parameters

read problem <../../Split_data/output/biodeg/7/1_sample_biodeg.logreg>
============

File name	:	../../Split_data/output/biodeg/7/1_sample_biodeg.logreg
Problem name 	:	1_sample_biodeg
Number of data	:	844
Number of var	:	41
The given data has linear dependence
1 sets of column vector are linearly dependent:
{ 19}, 

[dim=1] time: 0.029676
[dim=2] time: 0.06402
[dim=3] time: 0.101762
[dim=4] time: 0.133582
[dim=5] time: 0.169425
[dim=6] time: 0.204813
[dim=7] time: 0.232977
[dim=8] time: 0.266405
[dim=9] time: 0.306521
[dim=10] time: 0.335364
[dim=11] time: 0.376295
[dim=12] time: 0.404527
[dim=13] time: 0.43745
[dim=14] time: 0.461614
[dim=15] time: 0.478729
[dim=16] time: 0.499065
[dim=17] time: 0.519321
[dim=18] time: 0.535766
[dim=19] time: 0.553698
[dim=20] time: 0.570576
[dim=21] time: 0.603287
[dim=22] time: 0.618243
[dim=23] time: 0.633529
[dim=24] time: 0.647219
[dim=25] time: 0.660157
[dim=26] time: 0.680343
[dim=27] Time of forward = 0.697494sec.
AIC: 553.248
k: 26

[dim=40] time: 0.135015
[dim=39] time: 0.180142
[dim=38] time: 0.223795
[dim=37] time: 0.264367
[dim=36] time: 0.306962
[dim=35] time: 0.351326
[dim=34] time: 0.407582
[dim=33] time: 0.452586
[dim=32] time: 0.502402
[dim=31] time: 0.580845
[dim=30] time: 0.618297
[dim=29] time: 0.661764
[dim=28] time: 0.700948
[dim=27] time: 0.741025
[dim=26] time: 0.770149
[dim=25] time: 0.799199
[dim=24] time: 0.840686
[dim=23] Time of backward = 0.865888sec.
AIC: 549.754
k: 24
